************************************************************************
file with basedata            : md331_.bas
initial value random generator: 1698455254
************************************************************************
projects                      :  1
jobs (incl. supersource/sink ):  22
horizon                       :  159
RESOURCES
  - renewable                 :  2   R
  - nonrenewable              :  2   N
  - doubly constrained        :  0   D
************************************************************************
PROJECT INFORMATION:
pronr.  #jobs rel.date duedate tardcost  MPM-Time
    1     20      0       28        8       28
************************************************************************
PRECEDENCE RELATIONS:
jobnr.    #modes  #successors   successors
   1        1          3           2   3   4
   2        3          2          15  16
   3        3          2           7   9
   4        3          3           5   7   8
   5        3          3           6  10  15
   6        3          2          13  16
   7        3          2          15  17
   8        3          3           9  11  12
   9        3          1          19
  10        3          2          11  12
  11        3          1          13
  12        3          2          14  18
  13        3          2          14  20
  14        3          2          19  21
  15        3          2          20  21
  16        3          3          17  19  21
  17        3          1          18
  18        3          1          20
  19        3          1          22
  20        3          1          22
  21        3          1          22
  22        1          0        
************************************************************************
REQUESTS/DURATIONS:
jobnr. mode duration  R 1  R 2  N 1  N 2
------------------------------------------------------------------------
  1      1     0       0    0    0    0
  2      1     2      10    0    6    0
         2     6       9    0    0    1
         3    10       9    0    5    0
  3      1     2       0    8    9    0
         2     8      10    0    6    0
         3    10       0    7    5    0
  4      1     5       8    0    8    0
         2     7       0    4    0    3
         3     9       8    0    4    0
  5      1     6       0    8    0    6
         2     7       0    7    0    2
         3     8       0    5    8    0
  6      1     8       0    6    7    0
         2    10       0    5    7    0
         3    10       7    0    0    4
  7      1     2       6    0    0    4
         2     3       3    0    2    0
         3     4       0    6    2    0
  8      1     1       5    0    4    0
         2     1       5    0    0    4
         3     7       0    1    0    4
  9      1     1       0    5    0    8
         2     6       0    5    0    7
         3    10       7    0    8    0
 10      1     2       5    0   10    0
         2     8       0    5    0    4
         3    10       5    0    0    4
 11      1     1       0    7    8    0
         2     4       7    0    0    2
         3     8       5    0    0    2
 12      1     8       0    7    2    0
         2     9       0    6    0    3
         3     9       5    0    0    4
 13      1     2       0    7    0    8
         2     3       0    6    8    0
         3     3       7    0    0    6
 14      1     2       0    6    6    0
         2     4       0    4    3    0
         3     4       0    5    1    0
 15      1     4       6    0    9    0
         2     4       0    6    6    0
         3     8       0    3    0    4
 16      1     2       0    5    0    4
         2    10       4    0    0    4
         3    10       4    0    6    0
 17      1     1       9    0    0    5
         2     3       8    0    4    0
         3     9       0    4    0    3
 18      1     5      10    0    2    0
         2     6       0    7    0    7
         3     6       8    0    0    7
 19      1     3       7    0    0    6
         2     5       0    7    0    6
         3     6       0    5    0    3
 20      1     1       0    7    0    4
         2     9       3    0   10    0
         3    10       0    2    0    3
 21      1     5       0    5    9    0
         2     8       0    3    4    0
         3     8       0    2    0    7
 22      1     0       0    0    0    0
************************************************************************
RESOURCEAVAILABILITIES:
  R 1  R 2  N 1  N 2
   26   18   66   44
************************************************************************
MAXIMAL LAGS:
from  to  type  delay
    1   12   ES      0
    1    2   ES      0
    2   12   ES      0
    1    3   ES      0
    3   12   ES      0
    1    4   ES      0
    4   12   ES      0
    1    5   ES      0
    5   12   ES      0
    1    6   ES      0
    6   12   ES      0
    1    7   ES      0
    7   12   ES      0
    1    8   ES      0
    8   12   ES      0
    1    9   ES      0
    9   12   ES      0
    1   10   ES      0
   10   12   ES      0
    1   11   ES      0
   11   12   ES      0
    1   12   ES      0
    2   15   SS      2
    2   15   SE      8
    2   15   ES     -3
    2   15   EE     -4
    2   16   SS      6
    2   16   SE    -11
    2   16   ES     -1
    2   16   EE      4
    3    7   SS    -10
    3    7   SE     -3
    3    7   ES      2
    3    7   EE      2
    3    9   SS    -11
    3    9   SE    -11
    3    9   ES     -1
    3    9   EE     -3
    4    5   SS    -10
    4    5   SE      8
    4    5   ES    -10
    4    5   EE      7
    4    7   SS      7
    4    7   SE      4
    7    4   SE      0
    4    7   ES      0
    4    7   EE      2
    4    8   SS      6
    4    8   SE      5
    4    8   ES     11
    4    8   EE    -11
    5    6   SS      2
    5    6   SE      6
    5    6   ES      8
    5    6   EE     -6
    5   10   SS     -2
    5   10   SE      7
    5   10   ES      3
    5   10   EE      4
    5   15   SS     -8
    5   15   SE    -11
    5   15   ES      2
    5   15   EE     -9
    6   13   SS     -2
    6   13   SE     10
    6   13   ES    -10
    6   13   EE      4
    6   16   SS      8
    6   16   SE     -7
    6   16   ES    -11
    6   16   EE     -5
    7   15   SS     10
    7   15   SE      2
    7   15   ES      2
    7   15   EE      4
    7   17   SS      4
    7   17   SE      7
    7   17   ES     -7
    7   17   EE     -1
    8    9   SS     -1
    8    9   SE     -3
    8    9   ES      0
    8    9   EE      1
    8   11   SS     12
    8   11   SE     -2
    8   11   ES      9
    8   11   EE      7
    9   19   SS    -11
    9   19   SE      8
    9   19   ES      8
    9   19   EE     -2
   10   11   SS    -10
   10   11   SE     -2
   10   11   ES     -9
   10   11   EE      5
   11   13   SS      9
   11   13   SE      0
   11   13   ES     -3
   11   13   EE     -4
   12   14   SS     11
   12   14   SE      9
   12   14   ES      7
   12   14   EE     -8
   12   18   SS     -2
   12   18   SE    -10
   12   18   ES      6
   12   18   EE      9
   13   14   SS     -8
   13   14   SE     -1
   13   14   ES     -3
   13   14   EE      8
   13   20   SS     10
   13   20   SE      9
   13   20   ES      0
   13   20   EE     -8
   14   19   SS      7
   14   19   SE     10
   14   19   ES    -10
   14   19   EE     -3
   14   21   SS      5
   14   21   SE      0
   14   21   ES      8
   14   21   EE     -2
   15   20   SS     -8
   15   20   SE      9
   15   20   ES     10
   15   20   EE     11
   15   21   SS      9
   15   21   SE      4
   15   21   ES    -10
   15   21   EE      8
   16   17   SS      9
   16   17   SE      1
   16   17   ES      4
   16   17   EE     -1
   16   19   SS    -12
   16   19   SE     -1
   16   19   ES     -3
   16   19   EE     -7
   16   21   SS     -6
   16   21   SE     -2
   16   21   ES     12
   16   21   EE      3
   17   18   SS     -6
   17   18   SE     -5
   17   18   ES     -8
   17   18   EE     -8
   18   20   SS    -10
   18   20   SE     -3
   18   20   ES     -9
   18   20   EE      4
   19   22   SS     12
   19   22   SE      5
   19   22   ES     11
   19   22   EE      4
   20   22   SS    -11
   20   22   SE      9
   20   22   ES     -2
   20   22   EE     12
   21   22   SS      7
   21   22   SE     -8
   21   22   ES      7
   21   22   EE      0
************************************************************************
